# Solution for model micodag
# Objective value = 1.9373341887843555e+01
s_0_1 0
s_1_0 0
s_0_2 0
s_2_0 0.303868571652421
s_1_2 0
s_2_1 2.4002169872016843e-01
s_1_3 0
s_3_1 2.3467592267306747e-01
s_1_9 0
s_9_1 0
s_1_12 0
s_12_1 7.5396386130974857e-01
s_1_13 0
s_13_1 2.2008701917796980e-01
s_2_3 0
s_3_2 3.0375463762255350e-01
s_2_4 0
s_4_2 3.4691689665838332e-01
s_2_6 0
s_6_2 0
s_2_8 0
s_8_2 2.4299356480723766e-01
s_3_4 0
s_4_3 3.8954608876263315e+00
s_3_6 0
s_6_3 0
s_3_7 0
s_7_3 0
s_3_8 0
s_8_3 3.8954608876263315e+00
s_3_9 0
s_9_3 3.8954608876263315e+00
s_3_12 0
s_12_3 0
s_3_13 0
s_13_3 3.8954608876263315e+00
s_4_5 0
s_5_4 0
s_4_6 0
s_6_4 3.6770830881061922e-01
s_4_7 0
s_7_4 0
s_4_8 0
s_8_4 0
s_4_11 0
s_11_4 4.8608306407629831e-01
s_5_6 0
s_6_5 7.0143590438782777e-01
s_5_7 0
s_7_5 5.9423856975771816e-01
s_5_14 0
s_14_5 2.8288498355068326e-01
s_6_8 0
s_8_6 3.6886969636925926e-01
s_7_8 0
s_8_7 0
s_7_9 0
s_9_7 0.363461475880007
s_7_10 0
s_10_7 2.2396935803578621e-01
s_7_11 0
s_11_7 4.3565228666165456e-01
s_8_11 0
s_11_8 2.0351591467589403e-01
s_9_12 0
s_12_9 3.7714421007274179e-01
s_12_13 0
s_13_12 2.2823006749811814e-01
s_0_0 1.1146093661484708e+00
s_1_1 7.7238934111434965e-01
s_2_2 6.4601501447182619e-01
s_3_3 3.8954608876263315e+00
s_4_4 1.0513905020215697e+00
s_5_5 7.0048844335811111e-01
s_6_6 1.0776673193187754e+00
s_7_7 0.942178989493828
s_8_8 6.4551016728122157e-01
s_9_9 9.9124505165460564e-01
s_10_10 6.4648982874338756e-01
s_11_11 6.4714527662205690e-01
s_12_12 1.0394416248486906e+00
s_13_13 6.8011526320925952e-01
s_14_14 1.0965181632816243e+00
Gamma_0_0 1.0557506174037838e+00
Gamma_0_1 0
Gamma_0_2 0
Gamma_0_3 0
Gamma_0_4 0
Gamma_0_5 0
Gamma_0_6 0
Gamma_0_7 0
Gamma_0_8 0
Gamma_0_9 0
Gamma_0_10 0
Gamma_0_11 0
Gamma_0_12 0
Gamma_0_13 0
Gamma_0_14 0
Gamma_1_0 0
Gamma_1_1 8.7885683766717637e-01
Gamma_1_2 0
Gamma_1_3 0
Gamma_1_4 0
Gamma_1_5 0
Gamma_1_6 0
Gamma_1_7 0
Gamma_1_8 0
Gamma_1_9 0
Gamma_1_10 0
Gamma_1_11 0
Gamma_1_12 0
Gamma_1_13 0
Gamma_1_14 0
Gamma_2_0 -5.5124275201803974e-01
Gamma_2_1 -4.8992009421962829e-01
Gamma_2_2 8.0375059220620559e-01
Gamma_2_3 0
Gamma_2_4 0
Gamma_2_5 0
Gamma_2_6 0
Gamma_2_7 0
Gamma_2_8 0
Gamma_2_9 0
Gamma_2_10 0
Gamma_2_11 0
Gamma_2_12 0
Gamma_2_13 0
Gamma_2_14 0
Gamma_3_0 0
Gamma_3_1 4.8443361018107373e-01
Gamma_3_2 5.5113939944677715e-01
Gamma_3_3 8.3331111507625633e-01
Gamma_3_4 0
Gamma_3_5 0
Gamma_3_6 0
Gamma_3_7 0
Gamma_3_8 0
Gamma_3_9 0
Gamma_3_10 0
Gamma_3_11 0
Gamma_3_12 0
Gamma_3_13 0
Gamma_3_14 0
Gamma_4_0 0
Gamma_4_1 0
Gamma_4_2 0.588996516677632
Gamma_4_3 0.791832840422978
Gamma_4_4 1.0253733476259121e+00
Gamma_4_5 0
Gamma_4_6 0
Gamma_4_7 0
Gamma_4_8 0
Gamma_4_9 0
Gamma_4_10 0
Gamma_4_11 0
Gamma_4_12 0
Gamma_4_13 0
Gamma_4_14 0
Gamma_5_0 0
Gamma_5_1 0
Gamma_5_2 0
Gamma_5_3 0
Gamma_5_4 0
Gamma_5_5 8.3695187636931179e-01
Gamma_5_6 0
Gamma_5_7 0
Gamma_5_8 0
Gamma_5_9 0
Gamma_5_10 0
Gamma_5_11 0
Gamma_5_12 0
Gamma_5_13 0
Gamma_5_14 0
Gamma_6_0 0
Gamma_6_1 0
Gamma_6_2 0
Gamma_6_3 0
Gamma_6_4 -6.0638956852061709e-01
Gamma_6_5 8.3751770392501468e-01
Gamma_6_6 1.0381075663527244e+00
Gamma_6_7 0
Gamma_6_8 0
Gamma_6_9 0
Gamma_6_10 0
Gamma_6_11 0
Gamma_6_12 0
Gamma_6_13 0
Gamma_6_14 0
Gamma_7_0 0
Gamma_7_1 0
Gamma_7_2 0
Gamma_7_3 0
Gamma_7_4 0
Gamma_7_5 -7.7086871110307686e-01
Gamma_7_6 0
Gamma_7_7 9.7065904904545564e-01
Gamma_7_8 0
Gamma_7_9 0
Gamma_7_10 0
Gamma_7_11 0
Gamma_7_12 0
Gamma_7_13 0
Gamma_7_14 0
Gamma_8_0 0
Gamma_8_1 0
Gamma_8_2 4.9294377448877319e-01
Gamma_8_3 6.3818477775162108e-01
Gamma_8_4 0
Gamma_8_5 0
Gamma_8_6 -6.0734643850874759e-01
Gamma_8_7 0
Gamma_8_8 8.0343647370605642e-01
Gamma_8_9 0
Gamma_8_10 0
Gamma_8_11 0
Gamma_8_12 0
Gamma_8_13 0
Gamma_8_14 0
Gamma_9_0 0
Gamma_9_1 0
Gamma_9_2 0
Gamma_9_3 6.1300847377002332e-01
Gamma_9_4 0
Gamma_9_5 0
Gamma_9_6 0
Gamma_9_7 -0.602877662449031
Gamma_9_8 0
Gamma_9_9 9.9561290251513224e-01
Gamma_9_10 0
Gamma_9_11 0
Gamma_9_12 0
Gamma_9_13 0
Gamma_9_14 0
Gamma_10_0 0
Gamma_10_1 0
Gamma_10_2 0
Gamma_10_3 0
Gamma_10_4 0
Gamma_10_5 0
Gamma_10_6 0
Gamma_10_7 0.473254010057799
Gamma_10_8 0
Gamma_10_9 0
Gamma_10_10 8.0404591208673415e-01
Gamma_10_11 0
Gamma_10_12 0
Gamma_10_13 0
Gamma_10_14 0
Gamma_11_0 0
Gamma_11_1 0
Gamma_11_2 0
Gamma_11_3 0
Gamma_11_4 -6.9719657491721732e-01
Gamma_11_5 0
Gamma_11_6 0
Gamma_11_7 6.6003960991871935e-01
Gamma_11_8 4.5112738187334062e-01
Gamma_11_9 0
Gamma_11_10 0
Gamma_11_11 8.0445340239323870e-01
Gamma_11_12 0
Gamma_11_13 0
Gamma_11_14 0
Gamma_12_0 0
Gamma_12_1 -8.6831092432938406e-01
Gamma_12_2 0
Gamma_12_3 0
Gamma_12_4 0
Gamma_12_5 0
Gamma_12_6 0
Gamma_12_7 0
Gamma_12_8 0
Gamma_12_9 -6.1412068038191225e-01
Gamma_12_10 0
Gamma_12_11 0
Gamma_12_12 1.0195301000209318e+00
Gamma_12_13 0
Gamma_12_14 0
Gamma_13_0 0
Gamma_13_1 4.6913432956667189e-01
Gamma_13_2 0
Gamma_13_3 6.1490820141811220e-01
Gamma_13_4 0
Gamma_13_5 0
Gamma_13_6 0
Gamma_13_7 0
Gamma_13_8 0
Gamma_13_9 0
Gamma_13_10 0
Gamma_13_11 0
Gamma_13_12 4.7773430638600589e-01
Gamma_13_13 8.2469101074842588e-01
Gamma_13_14 0
Gamma_14_0 0
Gamma_14_1 0
Gamma_14_2 0
Gamma_14_3 0
Gamma_14_4 0
Gamma_14_5 5.3186932939462117e-01
Gamma_14_6 0
Gamma_14_7 0
Gamma_14_8 0
Gamma_14_9 0
Gamma_14_10 0
Gamma_14_11 0
Gamma_14_12 0
Gamma_14_13 0
Gamma_14_14 1.0471476320374431e+00
psi_0 6
psi_1 6
psi_2 5
psi_3 4
psi_4 3
psi_5 4
psi_6 2
psi_7 3
psi_8 1
psi_9 2
psi_10 0
psi_11 0
psi_12 1
psi_13 0
psi_14 0
g_0_0 0
g_0_1 0
g_0_2 0
g_0_3 0
g_0_4 0
g_0_5 0
g_0_6 0
g_0_7 0
g_0_8 0
g_0_9 0
g_0_10 0
g_0_11 0
g_0_12 0
g_0_13 0
g_0_14 0
g_1_0 0
g_1_1 0
g_1_2 0
g_1_3 0
g_1_4 0
g_1_5 0
g_1_6 0
g_1_7 0
g_1_8 0
g_1_9 0
g_1_10 0
g_1_11 0
g_1_12 0
g_1_13 0
g_1_14 0
g_2_0 1
g_2_1 1
g_2_2 0
g_2_3 0
g_2_4 0
g_2_5 0
g_2_6 0
g_2_7 0
g_2_8 0
g_2_9 0
g_2_10 0
g_2_11 0
g_2_12 0
g_2_13 0
g_2_14 0
g_3_0 0
g_3_1 1
g_3_2 1
g_3_3 0
g_3_4 0
g_3_5 0
g_3_6 0
g_3_7 0
g_3_8 0
g_3_9 0
g_3_10 0
g_3_11 0
g_3_12 0
g_3_13 0
g_3_14 0
g_4_0 0
g_4_1 0
g_4_2 1
g_4_3 1
g_4_4 0
g_4_5 0
g_4_6 0
g_4_7 0
g_4_8 0
g_4_9 0
g_4_10 0
g_4_11 0
g_4_12 0
g_4_13 0
g_4_14 0
g_5_0 0
g_5_1 0
g_5_2 0
g_5_3 0
g_5_4 0
g_5_5 0
g_5_6 0
g_5_7 0
g_5_8 0
g_5_9 0
g_5_10 0
g_5_11 0
g_5_12 0
g_5_13 0
g_5_14 0
g_6_0 0
g_6_1 0
g_6_2 0
g_6_3 0
g_6_4 1
g_6_5 1
g_6_6 0
g_6_7 0
g_6_8 0
g_6_9 0
g_6_10 0
g_6_11 0
g_6_12 0
g_6_13 0
g_6_14 0
g_7_0 0
g_7_1 0
g_7_2 0
g_7_3 0
g_7_4 0
g_7_5 1
g_7_6 0
g_7_7 0
g_7_8 0
g_7_9 0
g_7_10 0
g_7_11 0
g_7_12 0
g_7_13 0
g_7_14 0
g_8_0 0
g_8_1 0
g_8_2 1
g_8_3 1
g_8_4 0
g_8_5 0
g_8_6 1
g_8_7 0
g_8_8 0
g_8_9 0
g_8_10 0
g_8_11 0
g_8_12 0
g_8_13 0
g_8_14 0
g_9_0 0
g_9_1 0
g_9_2 0
g_9_3 1
g_9_4 0
g_9_5 0
g_9_6 0
g_9_7 1
g_9_8 0
g_9_9 0
g_9_10 0
g_9_11 0
g_9_12 0
g_9_13 0
g_9_14 0
g_10_0 0
g_10_1 0
g_10_2 0
g_10_3 0
g_10_4 0
g_10_5 0
g_10_6 0
g_10_7 1
g_10_8 0
g_10_9 0
g_10_10 0
g_10_11 0
g_10_12 0
g_10_13 0
g_10_14 0
g_11_0 0
g_11_1 0
g_11_2 0
g_11_3 0
g_11_4 1
g_11_5 0
g_11_6 0
g_11_7 1
g_11_8 1
g_11_9 0
g_11_10 0
g_11_11 0
g_11_12 0
g_11_13 0
g_11_14 0
g_12_0 0
g_12_1 1
g_12_2 0
g_12_3 0
g_12_4 0
g_12_5 0
g_12_6 0
g_12_7 0
g_12_8 0
g_12_9 1
g_12_10 0
g_12_11 0
g_12_12 0
g_12_13 0
g_12_14 0
g_13_0 0
g_13_1 1
g_13_2 0
g_13_3 1
g_13_4 0
g_13_5 0
g_13_6 0
g_13_7 0
g_13_8 0
g_13_9 0
g_13_10 0
g_13_11 0
g_13_12 1
g_13_13 0
g_13_14 0
g_14_0 0
g_14_1 0
g_14_2 0
g_14_3 0
g_14_4 0
g_14_5 1
g_14_6 0
g_14_7 0
g_14_8 0
g_14_9 0
g_14_10 0
g_14_11 0
g_14_12 0
g_14_13 0
g_14_14 0
T_0 5.4251999632866234e-02
T_1 -1.2913326410979495e-01
T_2 -2.1846626662659105e-01
T_3 -1.8234821905788204e-01
T_4 2.5056787856764486e-02
T_5 -1.7798870552275062e-01
T_6 3.7399407845470578e-02
T_7 -2.9780006188514313e-02
T_8 -2.1885715890143720e-01
T_9 -4.3967490355787319e-03
T_10 -2.1809890684808522e-01
T_11 -2.1759223542888884e-01
T_12 1.9341834893676954e-02
T_13 -1.9274649522839302e-01
T_14 4.6069926759467257e-02
